NAME : portgen-28-53
COMMENT : portgen N=28, seed=53
TYPE : TSP
DIMENSION : 28
EDGE_WEIGHT_TYPE : EUC_2D
NODE_COORD_SECTION
1 982100 143614
2 614945 884640
3 890314 17758
4 449749 65601
5 541139 294054
6 825136 599454
7 490738 158410
8 778136 834088
9 401987 320785
10 26763 268165
11 707996 48306
12 230710 600237
13 300704 299492
14 908364 742666
15 697210 18616
16 921418 612714
17 166295 515463
18 400727 285579
19 499016 487909
20 924860 772699
21 716794 482964
22 643291 901659
23 917646 94774
24 618137 243667
25 422746 649732
26 9631 189146
27 567460 199050
28 246495 369385
